; benchmark generated from python API
(set-info :status unknown)
(declare-fun x_epoch () (_ BitVec 32))
(declare-fun y_epoch () (_ BitVec 32))
(declare-fun x_plus_epoch () (_ BitVec 32))
(declare-fun x_plus_month () (_ BitVec 32))
(declare-fun x_plus_year () (_ BitVec 32))
(declare-fun x_plus_day () (_ BitVec 32))
(declare-fun x_plus_1_epoch () (_ BitVec 32))
(assert
 (bvsle (_ bv4294930771 32) x_epoch))
(assert
 (bvsge (_ bv36523 32) x_epoch))
(assert
 (bvsle (_ bv4294930771 32) y_epoch))
(assert
 (bvsge (_ bv36523 32) y_epoch))
(assert
 (bvsge x_epoch (_ bv7244 32)))
(assert
 (bvsle x_epoch (_ bv7276 32)))
(assert
 (bvsle (_ bv4294930771 32) x_plus_epoch))
(assert
 (bvsge (_ bv36523 32) x_plus_epoch))
(assert
 (let (($x29089 (= x_plus_month (_ bv11 32))))
 (let (($x31971 (= x_plus_month (_ bv9 32))))
 (let (($x6468 (= x_plus_month (_ bv6 32))))
 (let (($x21277 (= x_plus_month (_ bv4 32))))
 (let ((?x3485 (ite (or $x21277 $x6468 $x31971 $x29089) (_ bv30 32) (_ bv31 32))))
 (let (($x26904 (and (= (bvsmod x_plus_year (_ bv4 32)) (_ bv0 32)) (and (distinct (bvsmod x_plus_year (_ bv100 32)) (_ bv0 32)) true))))
 (let (($x16259 (or $x26904 (= (bvsmod x_plus_year (_ bv400 32)) (_ bv0 32)))))
 (let (($x4206 (= x_plus_month (_ bv2 32))))
 (let (($x63335 (bvsle (_ bv1 32) x_plus_day)))
 (let (($x21307 (bvsle (_ bv1 32) x_plus_month)))
 (let (($x67145 (bvsle (_ bv1900 32) x_plus_year)))
 (and $x67145 (bvsge (_ bv2100 32) x_plus_year) $x21307 (bvsge (_ bv12 32) x_plus_month) $x63335 (bvsle x_plus_day (ite $x4206 (ite $x16259 (_ bv29 32) (_ bv28 32)) ?x3485)))))))))))))))
(assert
 (let (($x26904 (and (= (bvsmod x_plus_year (_ bv4 32)) (_ bv0 32)) (and (distinct (bvsmod x_plus_year (_ bv100 32)) (_ bv0 32)) true))))
 (let (($x16259 (or $x26904 (= (bvsmod x_plus_year (_ bv400 32)) (_ bv0 32)))))
 (let ((?x4554 (ite (= (_ bv2 32) x_plus_month) (ite $x16259 (_ bv31 32) (_ bv31 32)) (ite (= (_ bv1 32) x_plus_month) (ite $x16259 (_ bv0 32) (_ bv0 32)) (_ bv0 32)))))
 (let ((?x755 (ite (= (_ bv4 32) x_plus_month) (ite $x16259 (_ bv91 32) (_ bv90 32)) (ite (= (_ bv3 32) x_plus_month) (ite $x16259 (_ bv60 32) (_ bv59 32)) ?x4554))))
 (let ((?x20866 (ite (= (_ bv6 32) x_plus_month) (ite $x16259 (_ bv152 32) (_ bv151 32)) (ite (= (_ bv5 32) x_plus_month) (ite $x16259 (_ bv121 32) (_ bv120 32)) ?x755))))
 (let ((?x3881 (ite (= (_ bv8 32) x_plus_month) (ite $x16259 (_ bv213 32) (_ bv212 32)) (ite (= (_ bv7 32) x_plus_month) (ite $x16259 (_ bv182 32) (_ bv181 32)) ?x20866))))
 (let ((?x34468 (ite (= (_ bv10 32) x_plus_month) (ite $x16259 (_ bv274 32) (_ bv273 32)) (ite (= (_ bv9 32) x_plus_month) (ite $x16259 (_ bv244 32) (_ bv243 32)) ?x3881))))
 (let ((?x21923 (ite (= (_ bv12 32) x_plus_month) (ite $x16259 (_ bv335 32) (_ bv334 32)) (ite (= (_ bv11 32) x_plus_month) (ite $x16259 (_ bv305 32) (_ bv304 32)) ?x34468))))
 (let ((?x28710 (bvadd (bvmul (_ bv365 32) (bvsub x_plus_year (_ bv1 32))) (bvsdiv (bvsub x_plus_year (_ bv1 32)) (_ bv4 32)))))
 (let ((?x32010 (bvadd (bvsub ?x28710 (bvsdiv (bvsub x_plus_year (_ bv1 32)) (_ bv100 32))) (bvsdiv (bvsub x_plus_year (_ bv1 32)) (_ bv400 32)))))
 (= x_plus_epoch (bvsub (bvadd (bvadd ?x32010 ?x21923) (bvsub x_plus_day (_ bv1 32))) (_ bv730179 32))))))))))))))
(assert
 (let ((?x956 (bvadd x_epoch (_ bv730179 32))))
 (let ((?x5257 (bvsmod ?x956 (_ bv146097 32))))
 (let ((?x3132 (bvsdiv ?x5257 (_ bv36524 32))))
 (let ((?x2099 (ite (bvsle (_ bv4 32) ?x3132) (_ bv3 32) ?x3132)))
 (let ((?x1271 (bvsub ?x5257 (bvmul ?x2099 (_ bv36524 32)))))
 (let ((?x3687 (bvsmod ?x1271 (_ bv1461 32))))
 (let ((?x4574 (bvsdiv ?x3687 (_ bv365 32))))
 (let ((?x2232 (ite (bvsle (_ bv4 32) ?x4574) (_ bv3 32) ?x4574)))
 (let ((?x2411 (bvadd (bvadd (bvmul (bvsdiv ?x956 (_ bv146097 32)) (_ bv400 32)) (bvmul ?x2099 (_ bv100 32))) (bvmul (bvsdiv ?x1271 (_ bv1461 32)) (_ bv4 32)))))
 (let ((?x4535 (bvadd (bvadd ?x2411 ?x2232) (_ bv1 32))))
 (let (($x2878 (or (and (= (bvsmod ?x4535 (_ bv4 32)) (_ bv0 32)) (and (distinct (bvsmod ?x4535 (_ bv100 32)) (_ bv0 32)) true)) (= (bvsmod ?x4535 (_ bv400 32)) (_ bv0 32)))))
 (let ((?x1429 (bvsub ?x3687 (bvmul ?x2232 (_ bv365 32)))))
 (let ((?x1425 (ite $x2878 (_ bv31 32) (_ bv31 32))))
 (let (($x4045 (bvsge ?x1429 ?x1425)))
 (let ((?x6705 (ite $x4045 (bvadd (bvsub ?x1429 ?x1425) (_ bv1 32)) (bvadd (bvsub ?x1429 (ite $x2878 (_ bv0 32) (_ bv0 32))) (_ bv1 32)))))
 (let ((?x713 (ite $x2878 (_ bv60 32) (_ bv59 32))))
 (let (($x1184 (bvsge ?x1429 ?x713)))
 (let ((?x2863 (ite $x2878 (_ bv91 32) (_ bv90 32))))
 (let (($x4722 (bvsge ?x1429 ?x2863)))
 (let ((?x6431 (ite $x4722 (bvadd (bvsub ?x1429 ?x2863) (_ bv1 32)) (ite $x1184 (bvadd (bvsub ?x1429 ?x713) (_ bv1 32)) ?x6705))))
 (let ((?x4959 (ite $x2878 (_ bv121 32) (_ bv120 32))))
 (let (($x40181 (bvsge ?x1429 ?x4959)))
 (let ((?x524 (ite $x2878 (_ bv152 32) (_ bv151 32))))
 (let (($x4176 (bvsge ?x1429 ?x524)))
 (let ((?x3345 (ite $x4176 (bvadd (bvsub ?x1429 ?x524) (_ bv1 32)) (ite $x40181 (bvadd (bvsub ?x1429 ?x4959) (_ bv1 32)) ?x6431))))
 (let ((?x1031 (ite $x2878 (_ bv182 32) (_ bv181 32))))
 (let (($x6697 (bvsge ?x1429 ?x1031)))
 (let ((?x2124 (ite $x2878 (_ bv213 32) (_ bv212 32))))
 (let (($x997 (bvsge ?x1429 ?x2124)))
 (let ((?x33122 (ite $x997 (bvadd (bvsub ?x1429 ?x2124) (_ bv1 32)) (ite $x6697 (bvadd (bvsub ?x1429 ?x1031) (_ bv1 32)) ?x3345))))
 (let ((?x2702 (ite $x2878 (_ bv244 32) (_ bv243 32))))
 (let (($x3265 (bvsge ?x1429 ?x2702)))
 (let ((?x689 (ite $x2878 (_ bv274 32) (_ bv273 32))))
 (let (($x4118 (bvsge ?x1429 ?x689)))
 (let ((?x25766 (ite $x4118 (bvadd (bvsub ?x1429 ?x689) (_ bv1 32)) (ite $x3265 (bvadd (bvsub ?x1429 ?x2702) (_ bv1 32)) ?x33122))))
 (let ((?x4827 (ite $x2878 (_ bv305 32) (_ bv304 32))))
 (let (($x1735 (bvsge ?x1429 ?x4827)))
 (let ((?x1045 (ite $x2878 (_ bv335 32) (_ bv334 32))))
 (let (($x5071 (bvsge ?x1429 ?x1045)))
 (let ((?x4133 (ite $x5071 (bvadd (bvsub ?x1429 ?x1045) (_ bv1 32)) (ite $x1735 (bvadd (bvsub ?x1429 ?x4827) (_ bv1 32)) ?x25766))))
 (let ((?x2621 (bvadd (bvmul (_ bv1 32) (_ bv12 32)) (_ bv0 32))))
 (let ((?x4347 (ite $x4176 (_ bv6 32) (ite $x40181 (_ bv5 32) (ite $x4722 (_ bv4 32) (ite $x1184 (_ bv3 32) (ite $x4045 (_ bv2 32) (_ bv1 32))))))))
 (let ((?x3058 (ite $x1735 (_ bv11 32) (ite $x4118 (_ bv10 32) (ite $x3265 (_ bv9 32) (ite $x997 (_ bv8 32) (ite $x6697 (_ bv7 32) ?x4347)))))))
 (let ((?x4212 (ite $x5071 (_ bv12 32) ?x3058)))
 (let ((?x4531 (bvadd ?x4212 ?x2621)))
 (let ((?x2581 (bvsub (ite (bvuge ?x4531 (_ bv2147483648 32)) (bvsub ?x4531 (_ bv0 32)) ?x4531) (_ bv1 32))))
 (let ((?x1479 (bvsmod ?x2581 (_ bv12 32))))
 (let ((?x3159 (bvadd ?x1479 (_ bv1 32))))
 (let ((?x1622 (ite (or (= ?x3159 (_ bv4 32)) (= ?x3159 (_ bv6 32)) (= ?x3159 (_ bv9 32)) (= ?x3159 (_ bv11 32))) (_ bv30 32) (_ bv31 32))))
 (let ((?x4461 (bvsdiv ?x2581 (_ bv12 32))))
 (let ((?x6163 (ite (and (bvuge ?x2581 (_ bv2147483648 32)) (and (distinct (_ bv0 32) ?x1479) true)) (bvsub ?x4461 (_ bv1 32)) ?x4461)))
 (let ((?x1552 (bvadd (_ bv0 32) ?x6163)))
 (let ((?x52345 (bvadd ?x4535 ?x1552)))
 (let (($x1359 (or (and (= (bvsmod ?x52345 (_ bv4 32)) (_ bv0 32)) (and (distinct (bvsmod ?x52345 (_ bv100 32)) (_ bv0 32)) true)) (= (bvsmod ?x52345 (_ bv400 32)) (_ bv0 32)))))
 (let ((?x1819 (ite (= ?x3159 (_ bv2 32)) (ite $x1359 (_ bv29 32) (_ bv28 32)) ?x1622)))
 (let ((?x4202 (ite (bvsgt (_ bv1 32) ?x4133) (_ bv1 32) (ite (bvsgt ?x4133 ?x1819) ?x1819 ?x4133))))
 (let ((?x2168 (ite (bvsgt (_ bv1 32) ?x4202) (_ bv1 32) (ite (bvsgt ?x4202 ?x1819) ?x1819 ?x4202))))
 (let ((?x2901 (ite (= (_ bv2 32) ?x3159) (ite $x1359 (_ bv31 32) (_ bv31 32)) (ite (= (_ bv1 32) ?x3159) (ite $x1359 (_ bv0 32) (_ bv0 32)) (_ bv0 32)))))
 (let ((?x4565 (ite (= (_ bv4 32) ?x3159) (ite $x1359 (_ bv91 32) (_ bv90 32)) (ite (= (_ bv3 32) ?x3159) (ite $x1359 (_ bv60 32) (_ bv59 32)) ?x2901))))
 (let ((?x1283 (ite (= (_ bv6 32) ?x3159) (ite $x1359 (_ bv152 32) (_ bv151 32)) (ite (= (_ bv5 32) ?x3159) (ite $x1359 (_ bv121 32) (_ bv120 32)) ?x4565))))
 (let ((?x2769 (ite (= (_ bv8 32) ?x3159) (ite $x1359 (_ bv213 32) (_ bv212 32)) (ite (= (_ bv7 32) ?x3159) (ite $x1359 (_ bv182 32) (_ bv181 32)) ?x1283))))
 (let ((?x1158 (ite (= (_ bv10 32) ?x3159) (ite $x1359 (_ bv274 32) (_ bv273 32)) (ite (= (_ bv9 32) ?x3159) (ite $x1359 (_ bv244 32) (_ bv243 32)) ?x2769))))
 (let ((?x3293 (ite (= (_ bv12 32) ?x3159) (ite $x1359 (_ bv335 32) (_ bv334 32)) (ite (= (_ bv11 32) ?x3159) (ite $x1359 (_ bv305 32) (_ bv304 32)) ?x1158))))
 (let ((?x3990 (bvadd (bvmul (_ bv365 32) (bvsub ?x52345 (_ bv1 32))) (bvsdiv (bvsub ?x52345 (_ bv1 32)) (_ bv4 32)))))
 (let ((?x2912 (bvadd (bvsub ?x3990 (bvsdiv (bvsub ?x52345 (_ bv1 32)) (_ bv100 32))) (bvsdiv (bvsub ?x52345 (_ bv1 32)) (_ bv400 32)))))
 (let ((?x38850 (bvadd (bvadd (bvsub (bvadd (bvadd ?x2912 ?x3293) (bvsub ?x2168 (_ bv1 32))) (_ bv730179 32)) (_ bv0 32)) (_ bv730179 32))))
 (let ((?x28615 (bvsmod ?x38850 (_ bv146097 32))))
 (let ((?x3078 (bvsdiv ?x28615 (_ bv36524 32))))
 (let ((?x28792 (ite (bvsle (_ bv4 32) ?x3078) (_ bv3 32) ?x3078)))
 (let ((?x25740 (bvsub ?x28615 (bvmul ?x28792 (_ bv36524 32)))))
 (let ((?x1190 (bvsmod ?x25740 (_ bv1461 32))))
 (let ((?x3723 (bvsdiv ?x1190 (_ bv365 32))))
 (let ((?x1023 (ite (bvsle (_ bv4 32) ?x3723) (_ bv3 32) ?x3723)))
 (let ((?x439 (bvadd (bvadd (bvmul (bvsdiv ?x38850 (_ bv146097 32)) (_ bv400 32)) (bvmul ?x28792 (_ bv100 32))) (bvmul (bvsdiv ?x25740 (_ bv1461 32)) (_ bv4 32)))))
 (let ((?x1293 (bvadd (bvadd ?x439 ?x1023) (_ bv1 32))))
 (let (($x5114 (= (_ bv0 32) (_ bv0 32))))
 (let ((?x4930 (ite $x5114 ?x52345 ?x1293)))
 (= x_plus_year ?x4930)))))))))))))))))))))))))))))))))))))))))))))))))))))))))))))))))))))))))))))))
(assert
 (let ((?x956 (bvadd x_epoch (_ bv730179 32))))
 (let ((?x5257 (bvsmod ?x956 (_ bv146097 32))))
 (let ((?x3132 (bvsdiv ?x5257 (_ bv36524 32))))
 (let ((?x2099 (ite (bvsle (_ bv4 32) ?x3132) (_ bv3 32) ?x3132)))
 (let ((?x1271 (bvsub ?x5257 (bvmul ?x2099 (_ bv36524 32)))))
 (let ((?x3687 (bvsmod ?x1271 (_ bv1461 32))))
 (let ((?x4574 (bvsdiv ?x3687 (_ bv365 32))))
 (let ((?x2232 (ite (bvsle (_ bv4 32) ?x4574) (_ bv3 32) ?x4574)))
 (let ((?x2411 (bvadd (bvadd (bvmul (bvsdiv ?x956 (_ bv146097 32)) (_ bv400 32)) (bvmul ?x2099 (_ bv100 32))) (bvmul (bvsdiv ?x1271 (_ bv1461 32)) (_ bv4 32)))))
 (let ((?x4535 (bvadd (bvadd ?x2411 ?x2232) (_ bv1 32))))
 (let (($x2878 (or (and (= (bvsmod ?x4535 (_ bv4 32)) (_ bv0 32)) (and (distinct (bvsmod ?x4535 (_ bv100 32)) (_ bv0 32)) true)) (= (bvsmod ?x4535 (_ bv400 32)) (_ bv0 32)))))
 (let ((?x1429 (bvsub ?x3687 (bvmul ?x2232 (_ bv365 32)))))
 (let ((?x1425 (ite $x2878 (_ bv31 32) (_ bv31 32))))
 (let (($x4045 (bvsge ?x1429 ?x1425)))
 (let ((?x6705 (ite $x4045 (bvadd (bvsub ?x1429 ?x1425) (_ bv1 32)) (bvadd (bvsub ?x1429 (ite $x2878 (_ bv0 32) (_ bv0 32))) (_ bv1 32)))))
 (let ((?x713 (ite $x2878 (_ bv60 32) (_ bv59 32))))
 (let (($x1184 (bvsge ?x1429 ?x713)))
 (let ((?x2863 (ite $x2878 (_ bv91 32) (_ bv90 32))))
 (let (($x4722 (bvsge ?x1429 ?x2863)))
 (let ((?x6431 (ite $x4722 (bvadd (bvsub ?x1429 ?x2863) (_ bv1 32)) (ite $x1184 (bvadd (bvsub ?x1429 ?x713) (_ bv1 32)) ?x6705))))
 (let ((?x4959 (ite $x2878 (_ bv121 32) (_ bv120 32))))
 (let (($x40181 (bvsge ?x1429 ?x4959)))
 (let ((?x524 (ite $x2878 (_ bv152 32) (_ bv151 32))))
 (let (($x4176 (bvsge ?x1429 ?x524)))
 (let ((?x3345 (ite $x4176 (bvadd (bvsub ?x1429 ?x524) (_ bv1 32)) (ite $x40181 (bvadd (bvsub ?x1429 ?x4959) (_ bv1 32)) ?x6431))))
 (let ((?x1031 (ite $x2878 (_ bv182 32) (_ bv181 32))))
 (let (($x6697 (bvsge ?x1429 ?x1031)))
 (let ((?x2124 (ite $x2878 (_ bv213 32) (_ bv212 32))))
 (let (($x997 (bvsge ?x1429 ?x2124)))
 (let ((?x33122 (ite $x997 (bvadd (bvsub ?x1429 ?x2124) (_ bv1 32)) (ite $x6697 (bvadd (bvsub ?x1429 ?x1031) (_ bv1 32)) ?x3345))))
 (let ((?x2702 (ite $x2878 (_ bv244 32) (_ bv243 32))))
 (let (($x3265 (bvsge ?x1429 ?x2702)))
 (let ((?x689 (ite $x2878 (_ bv274 32) (_ bv273 32))))
 (let (($x4118 (bvsge ?x1429 ?x689)))
 (let ((?x25766 (ite $x4118 (bvadd (bvsub ?x1429 ?x689) (_ bv1 32)) (ite $x3265 (bvadd (bvsub ?x1429 ?x2702) (_ bv1 32)) ?x33122))))
 (let ((?x4827 (ite $x2878 (_ bv305 32) (_ bv304 32))))
 (let (($x1735 (bvsge ?x1429 ?x4827)))
 (let ((?x1045 (ite $x2878 (_ bv335 32) (_ bv334 32))))
 (let (($x5071 (bvsge ?x1429 ?x1045)))
 (let ((?x4133 (ite $x5071 (bvadd (bvsub ?x1429 ?x1045) (_ bv1 32)) (ite $x1735 (bvadd (bvsub ?x1429 ?x4827) (_ bv1 32)) ?x25766))))
 (let ((?x2621 (bvadd (bvmul (_ bv1 32) (_ bv12 32)) (_ bv0 32))))
 (let ((?x4347 (ite $x4176 (_ bv6 32) (ite $x40181 (_ bv5 32) (ite $x4722 (_ bv4 32) (ite $x1184 (_ bv3 32) (ite $x4045 (_ bv2 32) (_ bv1 32))))))))
 (let ((?x3058 (ite $x1735 (_ bv11 32) (ite $x4118 (_ bv10 32) (ite $x3265 (_ bv9 32) (ite $x997 (_ bv8 32) (ite $x6697 (_ bv7 32) ?x4347)))))))
 (let ((?x4212 (ite $x5071 (_ bv12 32) ?x3058)))
 (let ((?x4531 (bvadd ?x4212 ?x2621)))
 (let ((?x2581 (bvsub (ite (bvuge ?x4531 (_ bv2147483648 32)) (bvsub ?x4531 (_ bv0 32)) ?x4531) (_ bv1 32))))
 (let ((?x1479 (bvsmod ?x2581 (_ bv12 32))))
 (let ((?x3159 (bvadd ?x1479 (_ bv1 32))))
 (let ((?x1622 (ite (or (= ?x3159 (_ bv4 32)) (= ?x3159 (_ bv6 32)) (= ?x3159 (_ bv9 32)) (= ?x3159 (_ bv11 32))) (_ bv30 32) (_ bv31 32))))
 (let ((?x4461 (bvsdiv ?x2581 (_ bv12 32))))
 (let ((?x6163 (ite (and (bvuge ?x2581 (_ bv2147483648 32)) (and (distinct (_ bv0 32) ?x1479) true)) (bvsub ?x4461 (_ bv1 32)) ?x4461)))
 (let ((?x1552 (bvadd (_ bv0 32) ?x6163)))
 (let ((?x52345 (bvadd ?x4535 ?x1552)))
 (let (($x1359 (or (and (= (bvsmod ?x52345 (_ bv4 32)) (_ bv0 32)) (and (distinct (bvsmod ?x52345 (_ bv100 32)) (_ bv0 32)) true)) (= (bvsmod ?x52345 (_ bv400 32)) (_ bv0 32)))))
 (let ((?x1819 (ite (= ?x3159 (_ bv2 32)) (ite $x1359 (_ bv29 32) (_ bv28 32)) ?x1622)))
 (let ((?x4202 (ite (bvsgt (_ bv1 32) ?x4133) (_ bv1 32) (ite (bvsgt ?x4133 ?x1819) ?x1819 ?x4133))))
 (let ((?x2168 (ite (bvsgt (_ bv1 32) ?x4202) (_ bv1 32) (ite (bvsgt ?x4202 ?x1819) ?x1819 ?x4202))))
 (let ((?x2901 (ite (= (_ bv2 32) ?x3159) (ite $x1359 (_ bv31 32) (_ bv31 32)) (ite (= (_ bv1 32) ?x3159) (ite $x1359 (_ bv0 32) (_ bv0 32)) (_ bv0 32)))))
 (let ((?x4565 (ite (= (_ bv4 32) ?x3159) (ite $x1359 (_ bv91 32) (_ bv90 32)) (ite (= (_ bv3 32) ?x3159) (ite $x1359 (_ bv60 32) (_ bv59 32)) ?x2901))))
 (let ((?x1283 (ite (= (_ bv6 32) ?x3159) (ite $x1359 (_ bv152 32) (_ bv151 32)) (ite (= (_ bv5 32) ?x3159) (ite $x1359 (_ bv121 32) (_ bv120 32)) ?x4565))))
 (let ((?x2769 (ite (= (_ bv8 32) ?x3159) (ite $x1359 (_ bv213 32) (_ bv212 32)) (ite (= (_ bv7 32) ?x3159) (ite $x1359 (_ bv182 32) (_ bv181 32)) ?x1283))))
 (let ((?x1158 (ite (= (_ bv10 32) ?x3159) (ite $x1359 (_ bv274 32) (_ bv273 32)) (ite (= (_ bv9 32) ?x3159) (ite $x1359 (_ bv244 32) (_ bv243 32)) ?x2769))))
 (let ((?x3293 (ite (= (_ bv12 32) ?x3159) (ite $x1359 (_ bv335 32) (_ bv334 32)) (ite (= (_ bv11 32) ?x3159) (ite $x1359 (_ bv305 32) (_ bv304 32)) ?x1158))))
 (let ((?x3990 (bvadd (bvmul (_ bv365 32) (bvsub ?x52345 (_ bv1 32))) (bvsdiv (bvsub ?x52345 (_ bv1 32)) (_ bv4 32)))))
 (let ((?x2912 (bvadd (bvsub ?x3990 (bvsdiv (bvsub ?x52345 (_ bv1 32)) (_ bv100 32))) (bvsdiv (bvsub ?x52345 (_ bv1 32)) (_ bv400 32)))))
 (let ((?x38850 (bvadd (bvadd (bvsub (bvadd (bvadd ?x2912 ?x3293) (bvsub ?x2168 (_ bv1 32))) (_ bv730179 32)) (_ bv0 32)) (_ bv730179 32))))
 (let ((?x28615 (bvsmod ?x38850 (_ bv146097 32))))
 (let ((?x3078 (bvsdiv ?x28615 (_ bv36524 32))))
 (let ((?x28792 (ite (bvsle (_ bv4 32) ?x3078) (_ bv3 32) ?x3078)))
 (let ((?x25740 (bvsub ?x28615 (bvmul ?x28792 (_ bv36524 32)))))
 (let ((?x1190 (bvsmod ?x25740 (_ bv1461 32))))
 (let ((?x3723 (bvsdiv ?x1190 (_ bv365 32))))
 (let ((?x1023 (ite (bvsle (_ bv4 32) ?x3723) (_ bv3 32) ?x3723)))
 (let ((?x439 (bvadd (bvadd (bvmul (bvsdiv ?x38850 (_ bv146097 32)) (_ bv400 32)) (bvmul ?x28792 (_ bv100 32))) (bvmul (bvsdiv ?x25740 (_ bv1461 32)) (_ bv4 32)))))
 (let ((?x1293 (bvadd (bvadd ?x439 ?x1023) (_ bv1 32))))
 (let (($x3815 (or (and (= (bvsmod ?x1293 (_ bv4 32)) (_ bv0 32)) (and (distinct (bvsmod ?x1293 (_ bv100 32)) (_ bv0 32)) true)) (= (bvsmod ?x1293 (_ bv400 32)) (_ bv0 32)))))
 (let ((?x511 (ite $x3815 (_ bv31 32) (_ bv31 32))))
 (let ((?x1916 (bvsub ?x1190 (bvmul ?x1023 (_ bv365 32)))))
 (let (($x5488 (bvsge ?x1916 ?x511)))
 (let ((?x3249 (ite $x3815 (_ bv60 32) (_ bv59 32))))
 (let (($x59581 (bvsge ?x1916 ?x3249)))
 (let ((?x1049 (ite $x3815 (_ bv91 32) (_ bv90 32))))
 (let (($x58995 (bvsge ?x1916 ?x1049)))
 (let ((?x11425 (ite $x3815 (_ bv121 32) (_ bv120 32))))
 (let (($x56049 (bvsge ?x1916 ?x11425)))
 (let ((?x37609 (ite $x3815 (_ bv152 32) (_ bv151 32))))
 (let (($x731 (bvsge ?x1916 ?x37609)))
 (let ((?x28534 (ite $x731 (_ bv6 32) (ite $x56049 (_ bv5 32) (ite $x58995 (_ bv4 32) (ite $x59581 (_ bv3 32) (ite $x5488 (_ bv2 32) (_ bv1 32))))))))
 (let ((?x91007 (ite $x3815 (_ bv182 32) (_ bv181 32))))
 (let (($x16219 (bvsge ?x1916 ?x91007)))
 (let ((?x2096 (ite $x3815 (_ bv213 32) (_ bv212 32))))
 (let (($x32351 (bvsge ?x1916 ?x2096)))
 (let ((?x37680 (ite $x3815 (_ bv244 32) (_ bv243 32))))
 (let (($x12286 (bvsge ?x1916 ?x37680)))
 (let ((?x3264 (ite $x3815 (_ bv274 32) (_ bv273 32))))
 (let (($x58645 (bvsge ?x1916 ?x3264)))
 (let ((?x39123 (ite $x3815 (_ bv305 32) (_ bv304 32))))
 (let (($x10443 (bvsge ?x1916 ?x39123)))
 (let ((?x40833 (ite $x10443 (_ bv11 32) (ite $x58645 (_ bv10 32) (ite $x12286 (_ bv9 32) (ite $x32351 (_ bv8 32) (ite $x16219 (_ bv7 32) ?x28534)))))))
 (let ((?x5456 (ite $x3815 (_ bv335 32) (_ bv334 32))))
 (let (($x41664 (bvsge ?x1916 ?x5456)))
 (let (($x5114 (= (_ bv0 32) (_ bv0 32))))
 (let ((?x16083 (ite $x5114 ?x3159 (ite $x41664 (_ bv12 32) ?x40833))))
 (= x_plus_month ?x16083)))))))))))))))))))))))))))))))))))))))))))))))))))))))))))))))))))))))))))))))))))))))))))))))))))))))))
(assert
 (let ((?x956 (bvadd x_epoch (_ bv730179 32))))
 (let ((?x5257 (bvsmod ?x956 (_ bv146097 32))))
 (let ((?x3132 (bvsdiv ?x5257 (_ bv36524 32))))
 (let ((?x2099 (ite (bvsle (_ bv4 32) ?x3132) (_ bv3 32) ?x3132)))
 (let ((?x1271 (bvsub ?x5257 (bvmul ?x2099 (_ bv36524 32)))))
 (let ((?x3687 (bvsmod ?x1271 (_ bv1461 32))))
 (let ((?x4574 (bvsdiv ?x3687 (_ bv365 32))))
 (let ((?x2232 (ite (bvsle (_ bv4 32) ?x4574) (_ bv3 32) ?x4574)))
 (let ((?x2411 (bvadd (bvadd (bvmul (bvsdiv ?x956 (_ bv146097 32)) (_ bv400 32)) (bvmul ?x2099 (_ bv100 32))) (bvmul (bvsdiv ?x1271 (_ bv1461 32)) (_ bv4 32)))))
 (let ((?x4535 (bvadd (bvadd ?x2411 ?x2232) (_ bv1 32))))
 (let (($x2878 (or (and (= (bvsmod ?x4535 (_ bv4 32)) (_ bv0 32)) (and (distinct (bvsmod ?x4535 (_ bv100 32)) (_ bv0 32)) true)) (= (bvsmod ?x4535 (_ bv400 32)) (_ bv0 32)))))
 (let ((?x1429 (bvsub ?x3687 (bvmul ?x2232 (_ bv365 32)))))
 (let ((?x1425 (ite $x2878 (_ bv31 32) (_ bv31 32))))
 (let (($x4045 (bvsge ?x1429 ?x1425)))
 (let ((?x6705 (ite $x4045 (bvadd (bvsub ?x1429 ?x1425) (_ bv1 32)) (bvadd (bvsub ?x1429 (ite $x2878 (_ bv0 32) (_ bv0 32))) (_ bv1 32)))))
 (let ((?x713 (ite $x2878 (_ bv60 32) (_ bv59 32))))
 (let (($x1184 (bvsge ?x1429 ?x713)))
 (let ((?x2863 (ite $x2878 (_ bv91 32) (_ bv90 32))))
 (let (($x4722 (bvsge ?x1429 ?x2863)))
 (let ((?x6431 (ite $x4722 (bvadd (bvsub ?x1429 ?x2863) (_ bv1 32)) (ite $x1184 (bvadd (bvsub ?x1429 ?x713) (_ bv1 32)) ?x6705))))
 (let ((?x4959 (ite $x2878 (_ bv121 32) (_ bv120 32))))
 (let (($x40181 (bvsge ?x1429 ?x4959)))
 (let ((?x524 (ite $x2878 (_ bv152 32) (_ bv151 32))))
 (let (($x4176 (bvsge ?x1429 ?x524)))
 (let ((?x3345 (ite $x4176 (bvadd (bvsub ?x1429 ?x524) (_ bv1 32)) (ite $x40181 (bvadd (bvsub ?x1429 ?x4959) (_ bv1 32)) ?x6431))))
 (let ((?x1031 (ite $x2878 (_ bv182 32) (_ bv181 32))))
 (let (($x6697 (bvsge ?x1429 ?x1031)))
 (let ((?x2124 (ite $x2878 (_ bv213 32) (_ bv212 32))))
 (let (($x997 (bvsge ?x1429 ?x2124)))
 (let ((?x33122 (ite $x997 (bvadd (bvsub ?x1429 ?x2124) (_ bv1 32)) (ite $x6697 (bvadd (bvsub ?x1429 ?x1031) (_ bv1 32)) ?x3345))))
 (let ((?x2702 (ite $x2878 (_ bv244 32) (_ bv243 32))))
 (let (($x3265 (bvsge ?x1429 ?x2702)))
 (let ((?x689 (ite $x2878 (_ bv274 32) (_ bv273 32))))
 (let (($x4118 (bvsge ?x1429 ?x689)))
 (let ((?x25766 (ite $x4118 (bvadd (bvsub ?x1429 ?x689) (_ bv1 32)) (ite $x3265 (bvadd (bvsub ?x1429 ?x2702) (_ bv1 32)) ?x33122))))
 (let ((?x4827 (ite $x2878 (_ bv305 32) (_ bv304 32))))
 (let (($x1735 (bvsge ?x1429 ?x4827)))
 (let ((?x1045 (ite $x2878 (_ bv335 32) (_ bv334 32))))
 (let (($x5071 (bvsge ?x1429 ?x1045)))
 (let ((?x4133 (ite $x5071 (bvadd (bvsub ?x1429 ?x1045) (_ bv1 32)) (ite $x1735 (bvadd (bvsub ?x1429 ?x4827) (_ bv1 32)) ?x25766))))
 (let ((?x2621 (bvadd (bvmul (_ bv1 32) (_ bv12 32)) (_ bv0 32))))
 (let ((?x4347 (ite $x4176 (_ bv6 32) (ite $x40181 (_ bv5 32) (ite $x4722 (_ bv4 32) (ite $x1184 (_ bv3 32) (ite $x4045 (_ bv2 32) (_ bv1 32))))))))
 (let ((?x3058 (ite $x1735 (_ bv11 32) (ite $x4118 (_ bv10 32) (ite $x3265 (_ bv9 32) (ite $x997 (_ bv8 32) (ite $x6697 (_ bv7 32) ?x4347)))))))
 (let ((?x4212 (ite $x5071 (_ bv12 32) ?x3058)))
 (let ((?x4531 (bvadd ?x4212 ?x2621)))
 (let ((?x2581 (bvsub (ite (bvuge ?x4531 (_ bv2147483648 32)) (bvsub ?x4531 (_ bv0 32)) ?x4531) (_ bv1 32))))
 (let ((?x1479 (bvsmod ?x2581 (_ bv12 32))))
 (let ((?x3159 (bvadd ?x1479 (_ bv1 32))))
 (let ((?x1622 (ite (or (= ?x3159 (_ bv4 32)) (= ?x3159 (_ bv6 32)) (= ?x3159 (_ bv9 32)) (= ?x3159 (_ bv11 32))) (_ bv30 32) (_ bv31 32))))
 (let ((?x4461 (bvsdiv ?x2581 (_ bv12 32))))
 (let ((?x6163 (ite (and (bvuge ?x2581 (_ bv2147483648 32)) (and (distinct (_ bv0 32) ?x1479) true)) (bvsub ?x4461 (_ bv1 32)) ?x4461)))
 (let ((?x1552 (bvadd (_ bv0 32) ?x6163)))
 (let ((?x52345 (bvadd ?x4535 ?x1552)))
 (let (($x1359 (or (and (= (bvsmod ?x52345 (_ bv4 32)) (_ bv0 32)) (and (distinct (bvsmod ?x52345 (_ bv100 32)) (_ bv0 32)) true)) (= (bvsmod ?x52345 (_ bv400 32)) (_ bv0 32)))))
 (let ((?x1819 (ite (= ?x3159 (_ bv2 32)) (ite $x1359 (_ bv29 32) (_ bv28 32)) ?x1622)))
 (let ((?x4202 (ite (bvsgt (_ bv1 32) ?x4133) (_ bv1 32) (ite (bvsgt ?x4133 ?x1819) ?x1819 ?x4133))))
 (let ((?x2168 (ite (bvsgt (_ bv1 32) ?x4202) (_ bv1 32) (ite (bvsgt ?x4202 ?x1819) ?x1819 ?x4202))))
 (let ((?x2901 (ite (= (_ bv2 32) ?x3159) (ite $x1359 (_ bv31 32) (_ bv31 32)) (ite (= (_ bv1 32) ?x3159) (ite $x1359 (_ bv0 32) (_ bv0 32)) (_ bv0 32)))))
 (let ((?x4565 (ite (= (_ bv4 32) ?x3159) (ite $x1359 (_ bv91 32) (_ bv90 32)) (ite (= (_ bv3 32) ?x3159) (ite $x1359 (_ bv60 32) (_ bv59 32)) ?x2901))))
 (let ((?x1283 (ite (= (_ bv6 32) ?x3159) (ite $x1359 (_ bv152 32) (_ bv151 32)) (ite (= (_ bv5 32) ?x3159) (ite $x1359 (_ bv121 32) (_ bv120 32)) ?x4565))))
 (let ((?x2769 (ite (= (_ bv8 32) ?x3159) (ite $x1359 (_ bv213 32) (_ bv212 32)) (ite (= (_ bv7 32) ?x3159) (ite $x1359 (_ bv182 32) (_ bv181 32)) ?x1283))))
 (let ((?x1158 (ite (= (_ bv10 32) ?x3159) (ite $x1359 (_ bv274 32) (_ bv273 32)) (ite (= (_ bv9 32) ?x3159) (ite $x1359 (_ bv244 32) (_ bv243 32)) ?x2769))))
 (let ((?x3293 (ite (= (_ bv12 32) ?x3159) (ite $x1359 (_ bv335 32) (_ bv334 32)) (ite (= (_ bv11 32) ?x3159) (ite $x1359 (_ bv305 32) (_ bv304 32)) ?x1158))))
 (let ((?x3990 (bvadd (bvmul (_ bv365 32) (bvsub ?x52345 (_ bv1 32))) (bvsdiv (bvsub ?x52345 (_ bv1 32)) (_ bv4 32)))))
 (let ((?x2912 (bvadd (bvsub ?x3990 (bvsdiv (bvsub ?x52345 (_ bv1 32)) (_ bv100 32))) (bvsdiv (bvsub ?x52345 (_ bv1 32)) (_ bv400 32)))))
 (let ((?x38850 (bvadd (bvadd (bvsub (bvadd (bvadd ?x2912 ?x3293) (bvsub ?x2168 (_ bv1 32))) (_ bv730179 32)) (_ bv0 32)) (_ bv730179 32))))
 (let ((?x28615 (bvsmod ?x38850 (_ bv146097 32))))
 (let ((?x3078 (bvsdiv ?x28615 (_ bv36524 32))))
 (let ((?x28792 (ite (bvsle (_ bv4 32) ?x3078) (_ bv3 32) ?x3078)))
 (let ((?x25740 (bvsub ?x28615 (bvmul ?x28792 (_ bv36524 32)))))
 (let ((?x1190 (bvsmod ?x25740 (_ bv1461 32))))
 (let ((?x3723 (bvsdiv ?x1190 (_ bv365 32))))
 (let ((?x1023 (ite (bvsle (_ bv4 32) ?x3723) (_ bv3 32) ?x3723)))
 (let ((?x439 (bvadd (bvadd (bvmul (bvsdiv ?x38850 (_ bv146097 32)) (_ bv400 32)) (bvmul ?x28792 (_ bv100 32))) (bvmul (bvsdiv ?x25740 (_ bv1461 32)) (_ bv4 32)))))
 (let ((?x1293 (bvadd (bvadd ?x439 ?x1023) (_ bv1 32))))
 (let (($x3815 (or (and (= (bvsmod ?x1293 (_ bv4 32)) (_ bv0 32)) (and (distinct (bvsmod ?x1293 (_ bv100 32)) (_ bv0 32)) true)) (= (bvsmod ?x1293 (_ bv400 32)) (_ bv0 32)))))
 (let ((?x1916 (bvsub ?x1190 (bvmul ?x1023 (_ bv365 32)))))
 (let ((?x511 (ite $x3815 (_ bv31 32) (_ bv31 32))))
 (let (($x5488 (bvsge ?x1916 ?x511)))
 (let ((?x2790 (ite $x5488 (bvadd (bvsub ?x1916 ?x511) (_ bv1 32)) (bvadd (bvsub ?x1916 (ite $x3815 (_ bv0 32) (_ bv0 32))) (_ bv1 32)))))
 (let ((?x3249 (ite $x3815 (_ bv60 32) (_ bv59 32))))
 (let (($x59581 (bvsge ?x1916 ?x3249)))
 (let ((?x1049 (ite $x3815 (_ bv91 32) (_ bv90 32))))
 (let (($x58995 (bvsge ?x1916 ?x1049)))
 (let ((?x28962 (ite $x58995 (bvadd (bvsub ?x1916 ?x1049) (_ bv1 32)) (ite $x59581 (bvadd (bvsub ?x1916 ?x3249) (_ bv1 32)) ?x2790))))
 (let ((?x11425 (ite $x3815 (_ bv121 32) (_ bv120 32))))
 (let (($x56049 (bvsge ?x1916 ?x11425)))
 (let ((?x37609 (ite $x3815 (_ bv152 32) (_ bv151 32))))
 (let (($x731 (bvsge ?x1916 ?x37609)))
 (let ((?x52560 (ite $x731 (bvadd (bvsub ?x1916 ?x37609) (_ bv1 32)) (ite $x56049 (bvadd (bvsub ?x1916 ?x11425) (_ bv1 32)) ?x28962))))
 (let ((?x91007 (ite $x3815 (_ bv182 32) (_ bv181 32))))
 (let (($x16219 (bvsge ?x1916 ?x91007)))
 (let ((?x2096 (ite $x3815 (_ bv213 32) (_ bv212 32))))
 (let (($x32351 (bvsge ?x1916 ?x2096)))
 (let ((?x16786 (ite $x32351 (bvadd (bvsub ?x1916 ?x2096) (_ bv1 32)) (ite $x16219 (bvadd (bvsub ?x1916 ?x91007) (_ bv1 32)) ?x52560))))
 (let ((?x37680 (ite $x3815 (_ bv244 32) (_ bv243 32))))
 (let (($x12286 (bvsge ?x1916 ?x37680)))
 (let ((?x3264 (ite $x3815 (_ bv274 32) (_ bv273 32))))
 (let (($x58645 (bvsge ?x1916 ?x3264)))
 (let ((?x2486 (ite $x58645 (bvadd (bvsub ?x1916 ?x3264) (_ bv1 32)) (ite $x12286 (bvadd (bvsub ?x1916 ?x37680) (_ bv1 32)) ?x16786))))
 (let ((?x39123 (ite $x3815 (_ bv305 32) (_ bv304 32))))
 (let (($x10443 (bvsge ?x1916 ?x39123)))
 (let ((?x5456 (ite $x3815 (_ bv335 32) (_ bv334 32))))
 (let (($x41664 (bvsge ?x1916 ?x5456)))
 (let ((?x18845 (ite $x41664 (bvadd (bvsub ?x1916 ?x5456) (_ bv1 32)) (ite $x10443 (bvadd (bvsub ?x1916 ?x39123) (_ bv1 32)) ?x2486))))
 (let (($x5114 (= (_ bv0 32) (_ bv0 32))))
 (let ((?x23863 (ite $x5114 ?x2168 ?x18845)))
 (= x_plus_day ?x23863)))))))))))))))))))))))))))))))))))))))))))))))))))))))))))))))))))))))))))))))))))))))))))))))))))))))))))))
(assert
 (= y_epoch x_plus_epoch))
(assert
 (bvsle (_ bv4294930771 32) x_plus_1_epoch))
(assert
 (bvsge (_ bv36523 32) x_plus_1_epoch))
(assert
 (= x_plus_1_epoch (bvadd x_epoch (_ bv365 32))))
(assert
 (not (= y_epoch x_plus_1_epoch)))
(check-sat)
